NAME: bip_20_6
TYPE: TSP
COMMENT: bip_20_6
DIMENSION: 20
EDGE_WEIGHT_TYPE: EUC_2D
NODE_COORD_SECTION
1 42 83
2 56 97
3 96 65
4 84 59
5 42 42
6 30 45
7 26 64
8 67 61
9 12 90
10 51 93
11 408 476
12 498 445
13 413 427
14 424 411
15 424 493
16 498 473
17 427 417
18 450 451
19 485 459
20 407 442
